c CNF file corresponding to a (partial) station packing problem.
p cnf 1865 198
1 2 3 4 5 6 7 8 9 10 11 12 13 14 0
-1 -2 0
-1 -3 0
-1 -4 0
-1 -5 0
-1 -6 0
-1 -7 0
-1 -8 0
-1 -9 0
-1 -10 0
-1 -11 0
-1 -12 0
-1 -13 0
-1 -14 0
-2 -3 0
-2 -4 0
-2 -5 0
-2 -6 0
-2 -7 0
-2 -8 0
-2 -9 0
-2 -10 0
-2 -11 0
-2 -12 0
-2 -13 0
-2 -14 0
-3 -4 0
-3 -5 0
-3 -6 0
-3 -7 0
-3 -8 0
-3 -9 0
-3 -10 0
-3 -11 0
-3 -12 0
-3 -13 0
-3 -14 0
-4 -5 0
-4 -6 0
-4 -7 0
-4 -8 0
-4 -9 0
-4 -10 0
-4 -11 0
-4 -12 0
-4 -13 0
-4 -14 0
-5 -6 0
-5 -7 0
-5 -8 0
-5 -9 0
-5 -10 0
-5 -11 0
-5 -12 0
-5 -13 0
-5 -14 0
-6 -7 0
-6 -8 0
-6 -9 0
-6 -10 0
-6 -11 0
-6 -12 0
-6 -13 0
-6 -14 0
-7 -8 0
-7 -9 0
-7 -10 0
-7 -11 0
-7 -12 0
-7 -13 0
-7 -14 0
-8 -9 0
-8 -10 0
-8 -11 0
-8 -12 0
-8 -13 0
-8 -14 0
-9 -10 0
-9 -11 0
-9 -12 0
-9 -13 0
-9 -14 0
-10 -11 0
-10 -12 0
-10 -13 0
-10 -14 0
-11 -12 0
-11 -13 0
-11 -14 0
-12 -13 0
-12 -14 0
-13 -14 0
1851 1852 1853 1854 1855 1856 1857 1858 1859 1860 1861 1862 1863 1864 1865 0
-1851 -1852 0
-1851 -1853 0
-1851 -1854 0
-1851 -1855 0
-1851 -1856 0
-1851 -1857 0
-1851 -1858 0
-1851 -1859 0
-1851 -1860 0
-1851 -1861 0
-1851 -1862 0
-1851 -1863 0
-1851 -1864 0
-1851 -1865 0
-1852 -1853 0
-1852 -1854 0
-1852 -1855 0
-1852 -1856 0
-1852 -1857 0
-1852 -1858 0
-1852 -1859 0
-1852 -1860 0
-1852 -1861 0
-1852 -1862 0
-1852 -1863 0
-1852 -1864 0
-1852 -1865 0
-1853 -1854 0
-1853 -1855 0
-1853 -1856 0
-1853 -1857 0
-1853 -1858 0
-1853 -1859 0
-1853 -1860 0
-1853 -1861 0
-1853 -1862 0
-1853 -1863 0
-1853 -1864 0
-1853 -1865 0
-1854 -1855 0
-1854 -1856 0
-1854 -1857 0
-1854 -1858 0
-1854 -1859 0
-1854 -1860 0
-1854 -1861 0
-1854 -1862 0
-1854 -1863 0
-1854 -1864 0
-1854 -1865 0
-1855 -1856 0
-1855 -1857 0
-1855 -1858 0
-1855 -1859 0
-1855 -1860 0
-1855 -1861 0
-1855 -1862 0
-1855 -1863 0
-1855 -1864 0
-1855 -1865 0
-1856 -1857 0
-1856 -1858 0
-1856 -1859 0
-1856 -1860 0
-1856 -1861 0
-1856 -1862 0
-1856 -1863 0
-1856 -1864 0
-1856 -1865 0
-1857 -1858 0
-1857 -1859 0
-1857 -1860 0
-1857 -1861 0
-1857 -1862 0
-1857 -1863 0
-1857 -1864 0
-1857 -1865 0
-1858 -1859 0
-1858 -1860 0
-1858 -1861 0
-1858 -1862 0
-1858 -1863 0
-1858 -1864 0
-1858 -1865 0
-1859 -1860 0
-1859 -1861 0
-1859 -1862 0
-1859 -1863 0
-1859 -1864 0
-1859 -1865 0
-1860 -1861 0
-1860 -1862 0
-1860 -1863 0
-1860 -1864 0
-1860 -1865 0
-1861 -1862 0
-1861 -1863 0
-1861 -1864 0
-1861 -1865 0
-1862 -1863 0
-1862 -1864 0
-1862 -1865 0
-1863 -1864 0
-1863 -1865 0
-1864 -1865 0
